p cnf 400 25
23 -34 -287 0
-23 -288  0
 292 287  -298 0
-292 -298 0
24 288 0
-24 -299 0
303 298  306 0
-306 -309 0
-303 -309 0
299 -310   0
309  8 0
310 -321 0
-321 325 8 0
325 331 0
321 -332 0
331 339 342 0
-339 342 0
332 -343 0
48 -34 0
 343 29  354 0
-29 355 0
-354 355 357 0
34 -357   399 0
3 399 0
399  400 0
